NAME : multi-day-2day-multi-break
COMMENT : 2-day with lunch + overnight + duty-time break windows
TYPE : CVRPTW
DIMENSION : 21
VEHICLES : 5
CAPACITY : 200
SERVICE_TIME : 600
EDGE_WEIGHT_TYPE : EUC_2D
NODE_COORD_SECTION
1 50 50
2 52 66
3 69 89
4 14 22
5 48 28
6 37 3
7 28 14
8 72 1
9 12 20
10 99 65
11 88 38
12 88 81
13 48 75
14 51 98
15 88 85
16 41 45
17 9 43
18 36 79
19 20 14
20 65 8
21 75 12
DEMAND_SECTION
1 0
2 18
3 20
4 13
5 30
6 19
7 11
8 21
9 22
10 13
11 25
12 25
13 16
14 16
15 14
16 18
17 17
18 11
19 11
20 23
21 11
TIME_WINDOW_SECTION
1 0 172800
2 12101 22901
3 11691 22491
4 11382 22182
5 12075 22875
6 13835 24635
7 25106 35906
8 27695 38495
9 19784 30584
10 20454 31254
11 28006 38806
12 94114 104914
13 96731 107531
14 93832 104632
15 96066 106866
16 99539 110339
17 109656 120456
18 103267 114067
19 104621 115421
20 108720 119520
21 108264 119064
DEPOT_SECTION
1
-1
EOF
