NAME : multi-day-2day-lunch
COMMENT : 2-day horizon with lunch-break anchor points
TYPE : CVRPTW
DIMENSION : 21
VEHICLES : 5
CAPACITY : 200
SERVICE_TIME : 600
EDGE_WEIGHT_TYPE : EUC_2D
NODE_COORD_SECTION
1 50 50
2 81 14
3 3 94
4 35 31
5 28 17
6 94 13
7 86 94
8 69 11
9 75 54
10 4 3
11 11 27
12 29 64
13 77 3
14 71 25
15 91 83
16 89 69
17 53 28
18 57 75
19 35 0
20 97 20
21 89 54
DEMAND_SECTION
1 0
2 20
3 18
4 14
5 16
6 20
7 13
8 12
9 22
10 13
11 21
12 21
13 29
14 18
15 11
16 24
17 27
18 13
19 22
20 12
21 27
TIME_WINDOW_SECTION
1 0 172800
2 19213 33613
3 41198 55598
4 40535 54935
5 23700 38100
6 37837 52237
7 12601 27001
8 4558 18958
9 3003 17403
10 14935 29335
11 18965 33365
12 91629 106029
13 101656 116056
14 93019 107419
15 111311 125711
16 104617 119017
17 116114 130514
18 128060 142460
19 110309 124709
20 97059 111459
21 110660 125060
DEPOT_SECTION
1
-1
EOF
