NAME : multi-day-heterogeneous
COMMENT : 2-day mixed fleet (half vehicles with breaks, half without)
TYPE : CVRPTW
DIMENSION : 21
VEHICLES : 6
CAPACITY : 200
SERVICE_TIME : 600
EDGE_WEIGHT_TYPE : EUC_2D
NODE_COORD_SECTION
1 50 50
2 9 51
3 5 75
4 75 29
5 81 66
6 19 74
7 68 4
8 3 8
9 100 40
10 80 6
11 3 17
12 70 37
13 67 42
14 91 97
15 11 50
16 90 61
17 46 19
18 60 59
19 9 58
20 95 89
21 69 79
DEMAND_SECTION
1 0
2 13
3 23
4 17
5 20
6 26
7 24
8 18
9 14
10 13
11 29
12 21
13 12
14 29
15 20
16 24
17 22
18 15
19 22
20 19
21 21
TIME_WINDOW_SECTION
1 0 172800
2 53386 67786
3 30106 44506
4 152905 167305
5 65053 79453
6 82352 96752
7 16931 31331
8 74431 88831
9 30353 44753
10 96698 111098
11 146827 161227
12 47965 62365
13 95905 110305
14 138884 153284
15 149056 163456
16 152642 167042
17 44973 59373
18 142241 156641
19 49669 64069
20 17253 31653
21 103364 117764
DEPOT_SECTION
1
-1
EOF
