NAME : multi-day-2day-overnight
COMMENT : 2-day horizon with 12h overnight rest gap
TYPE : CVRPTW
DIMENSION : 21
VEHICLES : 5
CAPACITY : 200
SERVICE_TIME : 600
EDGE_WEIGHT_TYPE : EUC_2D
NODE_COORD_SECTION
1 50 50
2 4 36
3 89 97
4 18 59
5 47 85
6 89 12
7 58 76
8 63 77
9 2 65
10 55 73
11 47 79
12 70 96
13 55 50
14 22 7
15 13 15
16 48 19
17 12 20
18 65 63
19 16 98
20 49 76
21 64 34
DEMAND_SECTION
1 0
2 28
3 15
4 22
5 12
6 11
7 28
8 11
9 15
10 11
11 15
12 19
13 18
14 12
15 26
16 29
17 13
18 28
19 30
20 30
21 11
TIME_WINDOW_SECTION
1 0 172800
2 6166 20566
3 40812 55212
4 29977 44377
5 42411 56811
6 21710 36110
7 21638 36038
8 34661 49061
9 28756 43156
10 10932 25332
11 8279 22679
12 106052 120452
13 121741 136141
14 104083 118483
15 139558 153958
16 118371 132771
17 124920 139320
18 112990 127390
19 140415 154815
20 105410 119810
21 136973 151373
DEPOT_SECTION
1
-1
EOF
