NAME : multi-day-3day-shift-cap
COMMENT : 3-day horizon (259200s) with EU EC 561 9h shift caps
TYPE : CVRPTW
DIMENSION : 16
VEHICLES : 3
CAPACITY : 200
SERVICE_TIME : 600
EDGE_WEIGHT_TYPE : EUC_2D
NODE_COORD_SECTION
1 50 50
2 34 53
3 62 32
4 10 38
5 43 2
6 9 61
7 1 14
8 36 15
9 39 95
10 83 4
11 79 8
12 17 34
13 94 19
14 27 97
15 91 54
16 9 78
DEMAND_SECTION
1 0
2 23
3 14
4 11
5 11
6 15
7 20
8 18
9 21
10 20
11 13
12 23
13 12
14 10
15 20
16 20
TIME_WINDOW_SECTION
1 0 259200
2 25686 40086
3 12673 27073
4 22910 37310
5 28715 43115
6 24438 38838
7 103788 118188
8 108050 122450
9 103992 118392
10 114831 129231
11 107111 121511
12 196787 211187
13 193146 207546
14 199350 213750
15 195809 210209
16 193878 208278
DEPOT_SECTION
1
-1
EOF
